
Gurobi 9.5.1 (linux64) logging started Tue 16 Aug 2022 08:09:20 PM MST

Set parameter LogFile to value "/home/local/ASUAD/kmajd1/NNRepLayer_v2/demos/walking_example/dynamic_constraint/repair_net/logs/opt_log_multi_18.log"
Gurobi Optimizer version 9.5.1 build v9.5.1rc2 (linux64)
Thread count: 48 physical cores, 96 logical processors, using up to 48 threads
Optimize a model with 15477 rows, 9832 columns and 119637 nonzeros
Model fingerprint: 0x2394a7ff
Model has 135 quadratic objective terms
Variable types: 5512 continuous, 4320 integer (4320 binary)
Coefficient statistics:
  Matrix range     [1e-04, 4e+01]
  Objective range  [5e-03, 3e+00]
  QObjective range [1e-01, 1e-01]
  Bounds range     [1e-03, 2e+02]
  RHS range        [3e-04, 4e+01]

Concurrent MIP optimizer: 3 concurrent instances (16 threads per instance)

Presolve removed 526 rows and 128 columns
Presolve time: 0.21s
Presolved: 14951 rows, 9704 columns, 118856 nonzeros
Presolved model has 135 quadratic objective terms
Variable types: 5384 continuous, 4320 integer (4320 binary)
Root relaxation presolve removed 4319 rows and 4319 columns
Root relaxation presolved: 10632 rows, 5385 columns, 105899 nonzeros
Root relaxation presolved model has 135 quadratic objective terms


Root relaxation: objective 2.466412e+01, 8159 iterations, 0.48 seconds (0.82 work units)

    Nodes    |    Current Node    |     Objective Bounds      |     Work
 Expl Unexpl |  Obj  Depth IntInf | Incumbent    BestBd   Gap | It/Node Time

     0     0      -    -    -              -   24.66412      -     -    0s
     0     0      -    -    -              -   24.66412      -     -    3s
     0     2      -    -    -              -   24.66412      -     -    7s
   543   578      -    -    -              -   24.66412      -     -   10s
  3534  3655      -    -    -              -   24.66412      -     -   15s
  6262  6357      -    -    -              -   24.66412      -     -   22s
  7476  7560      -    -    -              -   24.66412      -     -   25s
  7981  8014      -    -    -              -   24.66412      -     -   31s
  8750  8909      -    -    -              -   24.66412      -     -   35s
  9511  9596      -    -    -              -   24.66412      -     -   40s
  9982 10029      -    -    -              -   24.66412      -     -   47s
 10271 10271      -    -    -              -   24.66412      -     -   54s
 10273  9271      -    -    -       60.03750   24.66412  58.9%     -   77s
 10304  8844      -    -    -       52.48658   24.66412  53.0%     -   86s
 11034  7056      -    -    -       50.61053   24.66412  51.3%     -   90s
 11501  6208      -    -    -       48.29611   24.66412  48.9%     -   95s
 11901  6486      -    -    -       48.29611   24.66412  48.9%     -  104s
 12028  6514      -    -    -       48.29611   24.66412  48.9%     -  105s
 12219  6323      -    -    -       46.84490   24.66412  47.3%     -  137s
 12235  5845      -    -    -       46.45795   24.66412  46.9%     -  166s
 13103  5783      -    -    -       46.45001   24.66412  46.9%     -  171s
 13319  5727      -    -    -       46.45001   24.66412  46.9%     -  195s
 13539  5642      -    -    -       46.02955   24.66412  46.4%     -  201s
 14271  6009      -    -    -       46.02955   24.66412  46.4%     -  205s
 14919  6420      -    -    -       46.02955   24.66412  46.4%     -  217s
 15101  6375      -    -    -       46.02955   24.66412  46.4%     -  233s
 15216  6730      -    -    -       46.02955   24.66412  46.4%     -  235s
 15730  6903      -    -    -       46.02955   24.66412  46.4%     -  306s
 16294  7229      -    -    -       45.97515   24.66412  46.4%     -  310s
 17498  7898      -    -    -       45.97515   24.66412  46.4%     -  323s
 17629  8074      -    -    -       45.97515   24.66412  46.4%     -  326s
 17914  8169      -    -    -       45.97515   24.66412  46.4%     -  333s
 18046  8183      -    -    -       45.97515   24.66412  46.4%     -  345s
 18407  8547      -    -    -       45.97515   24.66412  46.4%     -  356s
 18798  8769      -    -    -       45.97515   24.66412  46.4%     -  363s
 18953  8847      -    -    -       45.97515   24.66412  46.4%     -  373s
 19087  9295      -    -    -       45.97515   24.66412  46.4%     -  380s
 19725  9605      -    -    -       45.97515   24.66412  46.4%     -  386s
 19951  9711      -    -    -       45.97515   24.66412  46.4%     -  391s
 20063  9769      -    -    -       45.97515   24.66412  46.4%     -  400s
 20725 11001      -    -    -       45.97515   24.66412  46.4%     -  417s
 21365 12034      -    -    -       45.97515   24.66412  46.4%     -  432s
 22446 12049      -    -    -       43.94088   24.66412  43.9%     -  601s

Instance 2 was solved

Explored 19212 nodes (13643862 simplex iterations) in 601.61 seconds (1171.17 work units)
Thread count was 16 (of 96 available processors)

Solution count 10: 42.3799 42.5286 43.9409 ... 45.834 

Time limit reached
Best objective 4.237993055661e+01, best bound 2.466412199802e+01, gap 41.8024%
